items = {piano, fridge, doublebed, singlebed, wardrobe, chair1, chair2, table};
durations = [60, 45, 30, 30, 20, 15, 15, 15];
people = [3, 2, 2, 1, 2, 1, 1, 2];
trolleys = [2, 1, 2, 2, 2, 0, 0, 1];
max_people = 4;
max_trolleys = 3;